x
16
1
6
8
13
14
11
7
4
2
3
5
9
10
12
15
19
30
32
31
35
42
44
49
50
55
54
41
38
47
51
39
27
37
34
40
43
46
48
53
52
56
58
61
67
73
66
68
45
64
70
77
84
79
81
83
88
92
95
96
93
91
103
102
109
113
114
119
122
118
117
116
115
112
110
107
108
105
106
97
100
121
120
123
124
128
133
135
129
131
136
143
148
160
166
162
158
159
165
168
167
170
180
178
181
177
175
173
174
179
172
164
163
161
169
176
182
194
190
187
186
183
184
189
192
191
188
193
185
171
155
151
147
152
153
157
154
150
141
144
139
138
142
146
149
156
145
140
137
134
132
126
125
127
130
111
104
101
99
94
89
90
98
86
85
65
20
63
36
59
62
82
71
80
87
76
78
75
72
74
69
60
57
33
28
29
22
18
21
24
26
17
25
23
